\Problem name: compact

Minimize
OBJROW: C
Subject To
ord(0,1):  x(0,0) - x(0,3) >= 2
ord(0,2):  - x(0,0) + x(0,2) >= 5
ord(0,3):  x(0,1) - x(0,2) >= 10
ord(1,1):  x(1,0) - x(1,1) >= 1
ord(1,2):  - x(1,0) + x(1,2) >= 10
ord(1,3):  - x(1,2) + x(1,3) >= 1
ord(2,1):  x(2,1) - x(2,2) >= 6
ord(2,2):  - x(2,1) + x(2,3) >= 1
ord(2,3):  x(2,0) - x(2,3) >= 2
ord(3,1):  - x(3,2) + x(3,3) >= 1
ord(3,2):  x(3,0) - x(3,3) >= 5
ord(3,3):  - x(3,0) + x(3,1) >= 1
ord(4,1):  - x(4,2) + x(4,3) >= 3
ord(4,2):  x(4,1) - x(4,3) >= 5
ord(4,3):  x(4,0) - x(4,1) >= 10
triangle2(0,1,0):  y(0,1,0) + y(1,0,0) = 1
triangle2(0,1,1):  y(0,1,1) + y(1,0,1) = 1
triangle2(0,1,2):  y(0,1,2) + y(1,0,2) = 1
triangle2(0,1,3):  y(0,1,3) + y(1,0,3) = 1
triangle2(0,2,0):  y(0,2,0) + y(2,0,0) = 1
triangle2(0,2,1):  y(0,2,1) + y(2,0,1) = 1
triangle2(0,2,2):  y(0,2,2) + y(2,0,2) = 1
triangle2(0,2,3):  y(0,2,3) + y(2,0,3) = 1
triangle2(0,3,0):  y(0,3,0) + y(3,0,0) = 1
triangle2(0,3,1):  y(0,3,1) + y(3,0,1) = 1
triangle2(0,3,2):  y(0,3,2) + y(3,0,2) = 1
triangle2(0,3,3):  y(0,3,3) + y(3,0,3) = 1
triangle2(0,4,0):  y(0,4,0) + y(4,0,0) = 1
triangle2(0,4,1):  y(0,4,1) + y(4,0,1) = 1
triangle2(0,4,2):  y(0,4,2) + y(4,0,2) = 1
triangle2(0,4,3):  y(0,4,3) + y(4,0,3) = 1
triangle2(1,2,0):  y(1,2,0) + y(2,1,0) = 1
triangle2(1,2,1):  y(1,2,1) + y(2,1,1) = 1
triangle2(1,2,2):  y(1,2,2) + y(2,1,2) = 1
triangle2(1,2,3):  y(1,2,3) + y(2,1,3) = 1
triangle2(1,3,0):  y(1,3,0) + y(3,1,0) = 1
triangle2(1,3,1):  y(1,3,1) + y(3,1,1) = 1
triangle2(1,3,2):  y(1,3,2) + y(3,1,2) = 1
triangle2(1,3,3):  y(1,3,3) + y(3,1,3) = 1
triangle2(1,4,0):  y(1,4,0) + y(4,1,0) = 1
triangle2(1,4,1):  y(1,4,1) + y(4,1,1) = 1
triangle2(1,4,2):  y(1,4,2) + y(4,1,2) = 1
triangle2(1,4,3):  y(1,4,3) + y(4,1,3) = 1
triangle2(2,3,0):  y(2,3,0) + y(3,2,0) = 1
triangle2(2,3,1):  y(2,3,1) + y(3,2,1) = 1
triangle2(2,3,2):  y(2,3,2) + y(3,2,2) = 1
triangle2(2,3,3):  y(2,3,3) + y(3,2,3) = 1
triangle2(2,4,0):  y(2,4,0) + y(4,2,0) = 1
triangle2(2,4,1):  y(2,4,1) + y(4,2,1) = 1
triangle2(2,4,2):  y(2,4,2) + y(4,2,2) = 1
triangle2(2,4,3):  y(2,4,3) + y(4,2,3) = 1
triangle2(3,4,0):  y(3,4,0) + y(4,3,0) = 1
triangle2(3,4,1):  y(3,4,1) + y(4,3,1) = 1
triangle2(3,4,2):  y(3,4,2) + y(4,3,2) = 1
triangle2(3,4,3):  y(3,4,3) + y(4,3,3) = 1
MCLinV(0,1,0):  x(0,0) - v(0,1,0) - x(1,0) = 10
MCLinV(1,0,0):  - x(0,0) - v(1,0,0) + x(1,0) = 5
MCLin1(0,1,0):  u(0,1,0) >= -0
MCLin2(0,1,0):  -81 y(1,0,0) - u(0,1,0) <= -0
MCLin3(0,1,0):  64 y(1,0,0) + v(0,1,0) - u(0,1,0) <= 64
MCLin4(0,1,0):  64 y(1,0,0) - u(0,1,0) >= -0
MCLin5(0,1,0):  -81 y(1,0,0) + v(0,1,0) - u(0,1,0) >= -81
MCLin6(1,0,0):  u(1,0,0) >= -0
MCLin7(1,0,0):  -79 y(0,1,0) - u(1,0,0) <= -0
MCLin8(1,0,0):  66 y(0,1,0) + v(1,0,0) - u(1,0,0) <= 66
MCLin9(1,0,0):  66 y(0,1,0) - u(1,0,0) >= -0
MCLin10(1,0,0):  -79 y(0,1,0) + v(1,0,0) - u(1,0,0) >= -79
MCLinV(0,1,1):  x(0,1) - v(0,1,1) - x(1,1) = 1
MCLinV(1,0,1):  - x(0,1) - v(1,0,1) + x(1,1) = 2
MCLin1(0,1,1):  u(0,1,1) >= -0
MCLin2(0,1,1):  -56 y(1,0,1) - u(0,1,1) <= -0
MCLin3(0,1,1):  89 y(1,0,1) + v(0,1,1) - u(0,1,1) <= 89
MCLin4(0,1,1):  89 y(1,0,1) - u(0,1,1) >= -0
MCLin5(0,1,1):  -56 y(1,0,1) + v(0,1,1) - u(0,1,1) >= -56
MCLin6(1,0,1):  u(1,0,1) >= -0
MCLin7(1,0,1):  -92 y(0,1,1) - u(1,0,1) <= -0
MCLin8(1,0,1):  53 y(0,1,1) + v(1,0,1) - u(1,0,1) <= 53
MCLin9(1,0,1):  53 y(0,1,1) - u(1,0,1) >= -0
MCLin10(1,0,1):  -92 y(0,1,1) + v(1,0,1) - u(1,0,1) >= -92
MCLinV(0,1,2):  x(0,2) - v(0,1,2) - x(1,2) = 1
MCLinV(1,0,2):  - x(0,2) - v(1,0,2) + x(1,2) = 10
MCLin1(0,1,2):  u(0,1,2) >= -0
MCLin2(0,1,2):  -77 y(1,0,2) - u(0,1,2) <= -0
MCLin3(0,1,2):  68 y(1,0,2) + v(0,1,2) - u(0,1,2) <= 68
MCLin4(0,1,2):  68 y(1,0,2) - u(0,1,2) >= -0
MCLin5(0,1,2):  -77 y(1,0,2) + v(0,1,2) - u(0,1,2) >= -77
MCLin6(1,0,2):  u(1,0,2) >= -0
MCLin7(1,0,2):  -79 y(0,1,2) - u(1,0,2) <= -0
MCLin8(1,0,2):  66 y(0,1,2) + v(1,0,2) - u(1,0,2) <= 66
MCLin9(1,0,2):  66 y(0,1,2) - u(1,0,2) >= -0
MCLin10(1,0,2):  -79 y(0,1,2) + v(1,0,2) - u(1,0,2) >= -79
MCLinV(0,1,3):  x(0,3) - v(0,1,3) - x(1,3) = 8
MCLinV(1,0,3):  - x(0,3) - v(1,0,3) + x(1,3) = 2
MCLin1(0,1,3):  u(0,1,3) >= -0
MCLin2(0,1,3):  -92 y(1,0,3) - u(0,1,3) <= -0
MCLin3(0,1,3):  53 y(1,0,3) + v(0,1,3) - u(0,1,3) <= 53
MCLin4(0,1,3):  53 y(1,0,3) - u(0,1,3) >= -0
MCLin5(0,1,3):  -92 y(1,0,3) + v(0,1,3) - u(0,1,3) >= -92
MCLin6(1,0,3):  u(1,0,3) >= -0
MCLin7(1,0,3):  -63 y(0,1,3) - u(1,0,3) <= -0
MCLin8(1,0,3):  82 y(0,1,3) + v(1,0,3) - u(1,0,3) <= 82
MCLin9(1,0,3):  82 y(0,1,3) - u(1,0,3) >= -0
MCLin10(1,0,3):  -63 y(0,1,3) + v(1,0,3) - u(1,0,3) >= -63
MCLinV(0,2,0):  x(0,0) - v(0,2,0) - x(2,0) = 4
MCLinV(2,0,0):  - x(0,0) - v(2,0,0) + x(2,0) = 5
MCLin1(0,2,0):  u(0,2,0) >= -0
MCLin2(0,2,0):  -90 y(2,0,0) - u(0,2,0) <= -0
MCLin3(0,2,0):  62 y(2,0,0) + v(0,2,0) - u(0,2,0) <= 62
MCLin4(0,2,0):  62 y(2,0,0) - u(0,2,0) >= -0
MCLin5(0,2,0):  -90 y(2,0,0) + v(0,2,0) - u(0,2,0) >= -90
MCLin6(2,0,0):  u(2,0,0) >= -0
MCLin7(2,0,0):  -71 y(0,2,0) - u(2,0,0) <= -0
MCLin8(2,0,0):  81 y(0,2,0) + v(2,0,0) - u(2,0,0) <= 81
MCLin9(2,0,0):  81 y(0,2,0) - u(2,0,0) >= -0
MCLin10(2,0,0):  -71 y(0,2,0) + v(2,0,0) - u(2,0,0) >= -71
MCLinV(0,2,1):  x(0,1) - v(0,2,1) - x(2,1) = 1
MCLinV(2,0,1):  - x(0,1) - v(2,0,1) + x(2,1) = 2
MCLin1(0,2,1):  u(0,2,1) >= -0
MCLin2(0,2,1):  -69 y(2,0,1) - u(0,2,1) <= -0
MCLin3(0,2,1):  83 y(2,0,1) + v(0,2,1) - u(0,2,1) <= 83
MCLin4(0,2,1):  83 y(2,0,1) - u(0,2,1) >= -0
MCLin5(0,2,1):  -69 y(2,0,1) + v(0,2,1) - u(0,2,1) >= -69
MCLin6(2,0,1):  u(2,0,1) >= -0
MCLin7(2,0,1):  -86 y(0,2,1) - u(2,0,1) <= -0
MCLin8(2,0,1):  66 y(0,2,1) + v(2,0,1) - u(2,0,1) <= 66
MCLin9(2,0,1):  66 y(0,2,1) - u(2,0,1) >= -0
MCLin10(2,0,1):  -86 y(0,2,1) + v(2,0,1) - u(2,0,1) >= -86
MCLinV(0,2,2):  x(0,2) - v(0,2,2) - x(2,2) = 6
MCLinV(2,0,2):  - x(0,2) - v(2,0,2) + x(2,2) = 10
MCLin1(0,2,2):  u(0,2,2) >= -0
MCLin2(0,2,2):  -78 y(2,0,2) - u(0,2,2) <= -0
MCLin3(0,2,2):  74 y(2,0,2) + v(0,2,2) - u(0,2,2) <= 74
MCLin4(0,2,2):  74 y(2,0,2) - u(0,2,2) >= -0
MCLin5(0,2,2):  -78 y(2,0,2) + v(0,2,2) - u(0,2,2) >= -78
MCLin6(2,0,2):  u(2,0,2) >= -0
MCLin7(2,0,2):  -90 y(0,2,2) - u(2,0,2) <= -0
MCLin8(2,0,2):  62 y(0,2,2) + v(2,0,2) - u(2,0,2) <= 62
MCLin9(2,0,2):  62 y(0,2,2) - u(2,0,2) >= -0
MCLin10(2,0,2):  -90 y(0,2,2) + v(2,0,2) - u(2,0,2) >= -90
MCLinV(0,2,3):  x(0,3) - v(0,2,3) - x(2,3) = 2
MCLinV(2,0,3):  - x(0,3) - v(2,0,3) + x(2,3) = 2
MCLin1(0,2,3):  u(0,2,3) >= -0
MCLin2(0,2,3):  -88 y(2,0,3) - u(0,2,3) <= -0
MCLin3(0,2,3):  64 y(2,0,3) + v(0,2,3) - u(0,2,3) <= 64
MCLin4(0,2,3):  64 y(2,0,3) - u(0,2,3) >= -0
MCLin5(0,2,3):  -88 y(2,0,3) + v(0,2,3) - u(0,2,3) >= -88
MCLin6(2,0,3):  u(2,0,3) >= -0
MCLin7(2,0,3):  -68 y(0,2,3) - u(2,0,3) <= -0
MCLin8(2,0,3):  84 y(0,2,3) + v(2,0,3) - u(2,0,3) <= 84
MCLin9(2,0,3):  84 y(0,2,3) - u(2,0,3) >= -0
MCLin10(2,0,3):  -68 y(0,2,3) + v(2,0,3) - u(2,0,3) >= -68
MCLinV(0,3,0):  x(0,0) - v(0,3,0) - x(3,0) = 1
MCLinV(3,0,0):  - x(0,0) - v(3,0,0) + x(3,0) = 5
MCLin1(0,3,0):  u(0,3,0) >= -0
MCLin2(0,3,0):  -81 y(3,0,0) - u(0,3,0) <= -0
MCLin3(0,3,0):  68 y(3,0,0) + v(0,3,0) - u(0,3,0) <= 68
MCLin4(0,3,0):  68 y(3,0,0) - u(0,3,0) >= -0
MCLin5(0,3,0):  -81 y(3,0,0) + v(0,3,0) - u(0,3,0) >= -81
MCLin6(3,0,0):  u(3,0,0) >= -0
MCLin7(3,0,0):  -74 y(0,3,0) - u(3,0,0) <= -0
MCLin8(3,0,0):  75 y(0,3,0) + v(3,0,0) - u(3,0,0) <= 75
MCLin9(3,0,0):  75 y(0,3,0) - u(3,0,0) >= -0
MCLin10(3,0,0):  -74 y(0,3,0) + v(3,0,0) - u(3,0,0) >= -74
MCLinV(0,3,1):  x(0,1) - v(0,3,1) - x(3,1) = 9
MCLinV(3,0,1):  - x(0,1) - v(3,0,1) + x(3,1) = 2
MCLin1(0,3,1):  u(0,3,1) >= -0
MCLin2(0,3,1):  -75 y(3,0,1) - u(0,3,1) <= -0
MCLin3(0,3,1):  74 y(3,0,1) + v(0,3,1) - u(0,3,1) <= 74
MCLin4(0,3,1):  74 y(3,0,1) - u(0,3,1) >= -0
MCLin5(0,3,1):  -75 y(3,0,1) + v(0,3,1) - u(0,3,1) >= -75
MCLin6(3,0,1):  u(3,0,1) >= -0
MCLin7(3,0,1):  -85 y(0,3,1) - u(3,0,1) <= -0
MCLin8(3,0,1):  64 y(0,3,1) + v(3,0,1) - u(3,0,1) <= 64
MCLin9(3,0,1):  64 y(0,3,1) - u(3,0,1) >= -0
MCLin10(3,0,1):  -85 y(0,3,1) + v(3,0,1) - u(3,0,1) >= -85
MCLinV(0,3,2):  x(0,2) - v(0,3,2) - x(3,2) = 1
MCLinV(3,0,2):  - x(0,2) - v(3,0,2) + x(3,2) = 10
MCLin1(0,3,2):  u(0,3,2) >= -0
MCLin2(0,3,2):  -70 y(3,0,2) - u(0,3,2) <= -0
MCLin3(0,3,2):  79 y(3,0,2) + v(0,3,2) - u(0,3,2) <= 79
MCLin4(0,3,2):  79 y(3,0,2) - u(0,3,2) >= -0
MCLin5(0,3,2):  -70 y(3,0,2) + v(0,3,2) - u(0,3,2) >= -70
MCLin6(3,0,2):  u(3,0,2) >= -0
MCLin7(3,0,2):  -90 y(0,3,2) - u(3,0,2) <= -0
MCLin8(3,0,2):  59 y(0,3,2) + v(3,0,2) - u(3,0,2) <= 59
MCLin9(3,0,2):  59 y(0,3,2) - u(3,0,2) >= -0
MCLin10(3,0,2):  -90 y(0,3,2) + v(3,0,2) - u(3,0,2) >= -90
MCLinV(0,3,3):  x(0,3) - v(0,3,3) - x(3,3) = 5
MCLinV(3,0,3):  - x(0,3) - v(3,0,3) + x(3,3) = 2
MCLin1(0,3,3):  u(0,3,3) >= -0
MCLin2(0,3,3):  -82 y(3,0,3) - u(0,3,3) <= -0
MCLin3(0,3,3):  67 y(3,0,3) + v(0,3,3) - u(0,3,3) <= 67
MCLin4(0,3,3):  67 y(3,0,3) - u(0,3,3) >= -0
MCLin5(0,3,3):  -82 y(3,0,3) + v(0,3,3) - u(0,3,3) >= -82
MCLin6(3,0,3):  u(3,0,3) >= -0
MCLin7(3,0,3):  -74 y(0,3,3) - u(3,0,3) <= -0
MCLin8(3,0,3):  75 y(0,3,3) + v(3,0,3) - u(3,0,3) <= 75
MCLin9(3,0,3):  75 y(0,3,3) - u(3,0,3) >= -0
MCLin10(3,0,3):  -74 y(0,3,3) + v(3,0,3) - u(3,0,3) >= -74
MCLinV(0,4,0):  x(0,0) - v(0,4,0) - x(4,0) = 6
MCLinV(4,0,0):  - x(0,0) - v(4,0,0) + x(4,0) = 5
MCLin1(0,4,0):  u(0,4,0) >= -0
MCLin2(0,4,0):  -90 y(4,0,0) - u(0,4,0) <= -0
MCLin3(0,4,0):  51 y(4,0,0) + v(0,4,0) - u(0,4,0) <= 51
MCLin4(0,4,0):  51 y(4,0,0) - u(0,4,0) >= -0
MCLin5(0,4,0):  -90 y(4,0,0) + v(0,4,0) - u(0,4,0) >= -90
MCLin6(4,0,0):  u(4,0,0) >= -0
MCLin7(4,0,0):  -62 y(0,4,0) - u(4,0,0) <= -0
MCLin8(4,0,0):  79 y(0,4,0) + v(4,0,0) - u(4,0,0) <= 79
MCLin9(4,0,0):  79 y(0,4,0) - u(4,0,0) >= -0
MCLin10(4,0,0):  -62 y(0,4,0) + v(4,0,0) - u(4,0,0) >= -62
MCLinV(0,4,1):  x(0,1) - v(0,4,1) - x(4,1) = 10
MCLinV(4,0,1):  - x(0,1) - v(4,0,1) + x(4,1) = 2
MCLin1(0,4,1):  u(0,4,1) >= -0
MCLin2(0,4,1):  -69 y(4,0,1) - u(0,4,1) <= -0
MCLin3(0,4,1):  72 y(4,0,1) + v(0,4,1) - u(0,4,1) <= 72
MCLin4(0,4,1):  72 y(4,0,1) - u(0,4,1) >= -0
MCLin5(0,4,1):  -69 y(4,0,1) + v(0,4,1) - u(0,4,1) >= -69
MCLin6(4,0,1):  u(4,0,1) >= -0
MCLin7(4,0,1):  -84 y(0,4,1) - u(4,0,1) <= -0
MCLin8(4,0,1):  57 y(0,4,1) + v(4,0,1) - u(4,0,1) <= 57
MCLin9(4,0,1):  57 y(0,4,1) - u(4,0,1) >= -0
MCLin10(4,0,1):  -84 y(0,4,1) + v(4,0,1) - u(4,0,1) >= -84
MCLinV(0,4,2):  x(0,2) - v(0,4,2) - x(4,2) = 3
MCLinV(4,0,2):  - x(0,2) - v(4,0,2) + x(4,2) = 10
MCLin1(0,4,2):  u(0,4,2) >= -0
MCLin2(0,4,2):  -64 y(4,0,2) - u(0,4,2) <= -0
MCLin3(0,4,2):  77 y(4,0,2) + v(0,4,2) - u(0,4,2) <= 77
MCLin4(0,4,2):  77 y(4,0,2) - u(0,4,2) >= -0
MCLin5(0,4,2):  -64 y(4,0,2) + v(0,4,2) - u(0,4,2) >= -64
MCLin6(4,0,2):  u(4,0,2) >= -0
MCLin7(4,0,2):  -90 y(0,4,2) - u(4,0,2) <= -0
MCLin8(4,0,2):  51 y(0,4,2) + v(4,0,2) - u(4,0,2) <= 51
MCLin9(4,0,2):  51 y(0,4,2) - u(4,0,2) >= -0
MCLin10(4,0,2):  -90 y(0,4,2) + v(4,0,2) - u(4,0,2) >= -90
MCLinV(0,4,3):  x(0,3) - v(0,4,3) - x(4,3) = 5
MCLinV(4,0,3):  - x(0,3) - v(4,0,3) + x(4,3) = 2
MCLin1(0,4,3):  u(0,4,3) >= -0
MCLin2(0,4,3):  -76 y(4,0,3) - u(0,4,3) <= -0
MCLin3(0,4,3):  65 y(4,0,3) + v(0,4,3) - u(0,4,3) <= 65
MCLin4(0,4,3):  65 y(4,0,3) - u(0,4,3) >= -0
MCLin5(0,4,3):  -76 y(4,0,3) + v(0,4,3) - u(0,4,3) >= -76
MCLin6(4,0,3):  u(4,0,3) >= -0
MCLin7(4,0,3):  -72 y(0,4,3) - u(4,0,3) <= -0
MCLin8(4,0,3):  69 y(0,4,3) + v(4,0,3) - u(4,0,3) <= 69
MCLin9(4,0,3):  69 y(0,4,3) - u(4,0,3) >= -0
MCLin10(4,0,3):  -72 y(0,4,3) + v(4,0,3) - u(4,0,3) >= -72
MCLinV(1,2,0):  x(1,0) - v(1,2,0) - x(2,0) = 4
MCLinV(2,1,0):  - x(1,0) - v(2,1,0) + x(2,0) = 10
MCLin1(1,2,0):  u(1,2,0) >= -0
MCLin2(1,2,0):  -91 y(2,1,0) - u(1,2,0) <= -0
MCLin3(1,2,0):  60 y(2,1,0) + v(1,2,0) - u(1,2,0) <= 60
MCLin4(1,2,0):  60 y(2,1,0) - u(1,2,0) >= -0
MCLin5(1,2,0):  -91 y(2,1,0) + v(1,2,0) - u(1,2,0) >= -91
MCLin6(2,1,0):  u(2,1,0) >= -0
MCLin7(2,1,0):  -74 y(1,2,0) - u(2,1,0) <= -0
MCLin8(2,1,0):  77 y(1,2,0) + v(2,1,0) - u(2,1,0) <= 77
MCLin9(2,1,0):  77 y(1,2,0) - u(2,1,0) >= -0
MCLin10(2,1,0):  -74 y(1,2,0) + v(2,1,0) - u(2,1,0) >= -74
MCLinV(1,2,1):  x(1,1) - v(1,2,1) - x(2,1) = 1
MCLinV(2,1,1):  - x(1,1) - v(2,1,1) + x(2,1) = 1
MCLin1(1,2,1):  u(1,2,1) >= -0
MCLin2(1,2,1):  -86 y(2,1,1) - u(1,2,1) <= -0
MCLin3(1,2,1):  65 y(2,1,1) + v(1,2,1) - u(1,2,1) <= 65
MCLin4(1,2,1):  65 y(2,1,1) - u(1,2,1) >= -0
MCLin5(1,2,1):  -86 y(2,1,1) + v(1,2,1) - u(1,2,1) >= -86
MCLin6(2,1,1):  u(2,1,1) >= -0
MCLin7(2,1,1):  -67 y(1,2,1) - u(2,1,1) <= -0
MCLin8(2,1,1):  84 y(1,2,1) + v(2,1,1) - u(2,1,1) <= 84
MCLin9(2,1,1):  84 y(1,2,1) - u(2,1,1) >= -0
MCLin10(2,1,1):  -67 y(1,2,1) + v(2,1,1) - u(2,1,1) >= -67
MCLinV(1,2,2):  x(1,2) - v(1,2,2) - x(2,2) = 6
MCLinV(2,1,2):  - x(1,2) - v(2,1,2) + x(2,2) = 1
MCLin1(1,2,2):  u(1,2,2) >= -0
MCLin2(1,2,2):  -74 y(2,1,2) - u(1,2,2) <= -0
MCLin3(1,2,2):  77 y(2,1,2) + v(1,2,2) - u(1,2,2) <= 77
MCLin4(1,2,2):  77 y(2,1,2) - u(1,2,2) >= -0
MCLin5(1,2,2):  -74 y(2,1,2) + v(1,2,2) - u(1,2,2) >= -74
MCLin6(2,1,2):  u(2,1,2) >= -0
MCLin7(2,1,2):  -84 y(1,2,2) - u(2,1,2) <= -0
MCLin8(2,1,2):  67 y(1,2,2) + v(2,1,2) - u(2,1,2) <= 67
MCLin9(2,1,2):  67 y(1,2,2) - u(2,1,2) >= -0
MCLin10(2,1,2):  -84 y(1,2,2) + v(2,1,2) - u(2,1,2) >= -84
MCLinV(1,2,3):  x(1,3) - v(1,2,3) - x(2,3) = 2
MCLinV(2,1,3):  - x(1,3) - v(2,1,3) + x(2,3) = 8
MCLin1(1,2,3):  u(1,2,3) >= -0
MCLin2(1,2,3):  -76 y(2,1,3) - u(1,2,3) <= -0
MCLin3(1,2,3):  75 y(2,1,3) + v(1,2,3) - u(1,2,3) <= 75
MCLin4(1,2,3):  75 y(2,1,3) - u(1,2,3) >= -0
MCLin5(1,2,3):  -76 y(2,1,3) + v(1,2,3) - u(1,2,3) >= -76
MCLin6(2,1,3):  u(2,1,3) >= -0
MCLin7(2,1,3):  -85 y(1,2,3) - u(2,1,3) <= -0
MCLin8(2,1,3):  66 y(1,2,3) + v(2,1,3) - u(2,1,3) <= 66
MCLin9(2,1,3):  66 y(1,2,3) - u(2,1,3) >= -0
MCLin10(2,1,3):  -85 y(1,2,3) + v(2,1,3) - u(2,1,3) >= -85
MCLinV(1,3,0):  x(1,0) - v(1,3,0) - x(3,0) = 1
MCLinV(3,1,0):  - x(1,0) - v(3,1,0) + x(3,0) = 10
MCLin1(1,3,0):  u(1,3,0) >= -0
MCLin2(1,3,0):  -82 y(3,1,0) - u(1,3,0) <= -0
MCLin3(1,3,0):  66 y(3,1,0) + v(1,3,0) - u(1,3,0) <= 66
MCLin4(1,3,0):  66 y(3,1,0) - u(1,3,0) >= -0
MCLin5(1,3,0):  -82 y(3,1,0) + v(1,3,0) - u(1,3,0) >= -82
MCLin6(3,1,0):  u(3,1,0) >= -0
MCLin7(3,1,0):  -77 y(1,3,0) - u(3,1,0) <= -0
MCLin8(3,1,0):  71 y(1,3,0) + v(3,1,0) - u(3,1,0) <= 71
MCLin9(3,1,0):  71 y(1,3,0) - u(3,1,0) >= -0
MCLin10(3,1,0):  -77 y(1,3,0) + v(3,1,0) - u(3,1,0) >= -77
MCLinV(1,3,1):  x(1,1) - v(1,3,1) - x(3,1) = 9
MCLinV(3,1,1):  - x(1,1) - v(3,1,1) + x(3,1) = 1
MCLin1(1,3,1):  u(1,3,1) >= -0
MCLin2(1,3,1):  -92 y(3,1,1) - u(1,3,1) <= -0
MCLin3(1,3,1):  56 y(3,1,1) + v(1,3,1) - u(1,3,1) <= 56
MCLin4(1,3,1):  56 y(3,1,1) - u(1,3,1) >= -0
MCLin5(1,3,1):  -92 y(3,1,1) + v(1,3,1) - u(1,3,1) >= -92
MCLin6(3,1,1):  u(3,1,1) >= -0
MCLin7(3,1,1):  -66 y(1,3,1) - u(3,1,1) <= -0
MCLin8(3,1,1):  82 y(1,3,1) + v(3,1,1) - u(3,1,1) <= 82
MCLin9(3,1,1):  82 y(1,3,1) - u(3,1,1) >= -0
MCLin10(3,1,1):  -66 y(1,3,1) + v(3,1,1) - u(3,1,1) >= -66
MCLinV(1,3,2):  x(1,2) - v(1,3,2) - x(3,2) = 1
MCLinV(3,1,2):  - x(1,2) - v(3,1,2) + x(3,2) = 1
MCLin1(1,3,2):  u(1,3,2) >= -0
MCLin2(1,3,2):  -66 y(3,1,2) - u(1,3,2) <= -0
MCLin3(1,3,2):  82 y(3,1,2) + v(1,3,2) - u(1,3,2) <= 82
MCLin4(1,3,2):  82 y(3,1,2) - u(1,3,2) >= -0
MCLin5(1,3,2):  -66 y(3,1,2) + v(1,3,2) - u(1,3,2) >= -66
MCLin6(3,1,2):  u(3,1,2) >= -0
MCLin7(3,1,2):  -84 y(1,3,2) - u(3,1,2) <= -0
MCLin8(3,1,2):  64 y(1,3,2) + v(3,1,2) - u(3,1,2) <= 64
MCLin9(3,1,2):  64 y(1,3,2) - u(3,1,2) >= -0
MCLin10(3,1,2):  -84 y(1,3,2) + v(3,1,2) - u(3,1,2) >= -84
MCLinV(1,3,3):  x(1,3) - v(1,3,3) - x(3,3) = 5
MCLinV(3,1,3):  - x(1,3) - v(3,1,3) + x(3,3) = 8
MCLin1(1,3,3):  u(1,3,3) >= -0
MCLin2(1,3,3):  -70 y(3,1,3) - u(1,3,3) <= -0
MCLin3(1,3,3):  78 y(3,1,3) + v(1,3,3) - u(1,3,3) <= 78
MCLin4(1,3,3):  78 y(3,1,3) - u(1,3,3) >= -0
MCLin5(1,3,3):  -70 y(3,1,3) + v(1,3,3) - u(1,3,3) >= -70
MCLin6(3,1,3):  u(3,1,3) >= -0
MCLin7(3,1,3):  -91 y(1,3,3) - u(3,1,3) <= -0
MCLin8(3,1,3):  57 y(1,3,3) + v(3,1,3) - u(3,1,3) <= 57
MCLin9(3,1,3):  57 y(1,3,3) - u(3,1,3) >= -0
MCLin10(3,1,3):  -91 y(1,3,3) + v(3,1,3) - u(3,1,3) >= -91
MCLinV(1,4,0):  x(1,0) - v(1,4,0) - x(4,0) = 6
MCLinV(4,1,0):  - x(1,0) - v(4,1,0) + x(4,0) = 10
MCLin1(1,4,0):  u(1,4,0) >= -0
MCLin2(1,4,0):  -91 y(4,1,0) - u(1,4,0) <= -0
MCLin3(1,4,0):  49 y(4,1,0) + v(1,4,0) - u(1,4,0) <= 49
MCLin4(1,4,0):  49 y(4,1,0) - u(1,4,0) >= -0
MCLin5(1,4,0):  -91 y(4,1,0) + v(1,4,0) - u(1,4,0) >= -91
MCLin6(4,1,0):  u(4,1,0) >= -0
MCLin7(4,1,0):  -65 y(1,4,0) - u(4,1,0) <= -0
MCLin8(4,1,0):  75 y(1,4,0) + v(4,1,0) - u(4,1,0) <= 75
MCLin9(4,1,0):  75 y(1,4,0) - u(4,1,0) >= -0
MCLin10(4,1,0):  -65 y(1,4,0) + v(4,1,0) - u(4,1,0) >= -65
MCLinV(1,4,1):  x(1,1) - v(1,4,1) - x(4,1) = 10
MCLinV(4,1,1):  - x(1,1) - v(4,1,1) + x(4,1) = 1
MCLin1(1,4,1):  u(1,4,1) >= -0
MCLin2(1,4,1):  -86 y(4,1,1) - u(1,4,1) <= -0
MCLin3(1,4,1):  54 y(4,1,1) + v(1,4,1) - u(1,4,1) <= 54
MCLin4(1,4,1):  54 y(4,1,1) - u(1,4,1) >= -0
MCLin5(1,4,1):  -86 y(4,1,1) + v(1,4,1) - u(1,4,1) >= -86
MCLin6(4,1,1):  u(4,1,1) >= -0
MCLin7(4,1,1):  -65 y(1,4,1) - u(4,1,1) <= -0
MCLin8(4,1,1):  75 y(1,4,1) + v(4,1,1) - u(4,1,1) <= 75
MCLin9(4,1,1):  75 y(1,4,1) - u(4,1,1) >= -0
MCLin10(4,1,1):  -65 y(1,4,1) + v(4,1,1) - u(4,1,1) >= -65
MCLinV(1,4,2):  x(1,2) - v(1,4,2) - x(4,2) = 3
MCLinV(4,1,2):  - x(1,2) - v(4,1,2) + x(4,2) = 1
MCLin1(1,4,2):  u(1,4,2) >= -0
MCLin2(1,4,2):  -60 y(4,1,2) - u(1,4,2) <= -0
MCLin3(1,4,2):  80 y(4,1,2) + v(1,4,2) - u(1,4,2) <= 80
MCLin4(1,4,2):  80 y(4,1,2) - u(1,4,2) >= -0
MCLin5(1,4,2):  -60 y(4,1,2) + v(1,4,2) - u(1,4,2) >= -60
MCLin6(4,1,2):  u(4,1,2) >= -0
MCLin7(4,1,2):  -84 y(1,4,2) - u(4,1,2) <= -0
MCLin8(4,1,2):  56 y(1,4,2) + v(4,1,2) - u(4,1,2) <= 56
MCLin9(4,1,2):  56 y(1,4,2) - u(4,1,2) >= -0
MCLin10(4,1,2):  -84 y(1,4,2) + v(4,1,2) - u(4,1,2) >= -84
MCLinV(1,4,3):  x(1,3) - v(1,4,3) - x(4,3) = 5
MCLinV(4,1,3):  - x(1,3) - v(4,1,3) + x(4,3) = 8
MCLin1(1,4,3):  u(1,4,3) >= -0
MCLin2(1,4,3):  -64 y(4,1,3) - u(1,4,3) <= -0
MCLin3(1,4,3):  76 y(4,1,3) + v(1,4,3) - u(1,4,3) <= 76
MCLin4(1,4,3):  76 y(4,1,3) - u(1,4,3) >= -0
MCLin5(1,4,3):  -64 y(4,1,3) + v(1,4,3) - u(1,4,3) >= -64
MCLin6(4,1,3):  u(4,1,3) >= -0
MCLin7(4,1,3):  -89 y(1,4,3) - u(4,1,3) <= -0
MCLin8(4,1,3):  51 y(1,4,3) + v(4,1,3) - u(4,1,3) <= 51
MCLin9(4,1,3):  51 y(1,4,3) - u(4,1,3) >= -0
MCLin10(4,1,3):  -89 y(1,4,3) + v(4,1,3) - u(4,1,3) >= -89
MCLinV(2,3,0):  x(2,0) - v(2,3,0) - x(3,0) = 1
MCLinV(3,2,0):  - x(2,0) - v(3,2,0) + x(3,0) = 4
MCLin1(2,3,0):  u(2,3,0) >= -0
MCLin2(2,3,0):  -74 y(3,2,0) - u(2,3,0) <= -0
MCLin3(2,3,0):  81 y(3,2,0) + v(2,3,0) - u(2,3,0) <= 81
MCLin4(2,3,0):  81 y(3,2,0) - u(2,3,0) >= -0
MCLin5(2,3,0):  -74 y(3,2,0) + v(2,3,0) - u(2,3,0) >= -74
MCLin6(3,2,0):  u(3,2,0) >= -0
MCLin7(3,2,0):  -86 y(2,3,0) - u(3,2,0) <= -0
MCLin8(3,2,0):  69 y(2,3,0) + v(3,2,0) - u(3,2,0) <= 69
MCLin9(3,2,0):  69 y(2,3,0) - u(3,2,0) >= -0
MCLin10(3,2,0):  -86 y(2,3,0) + v(3,2,0) - u(3,2,0) >= -86
MCLinV(2,3,1):  x(2,1) - v(2,3,1) - x(3,1) = 9
MCLinV(3,2,1):  - x(2,1) - v(3,2,1) + x(3,1) = 1
MCLin1(2,3,1):  u(2,3,1) >= -0
MCLin2(2,3,1):  -86 y(3,2,1) - u(2,3,1) <= -0
MCLin3(2,3,1):  69 y(3,2,1) + v(2,3,1) - u(2,3,1) <= 69
MCLin4(2,3,1):  69 y(3,2,1) - u(2,3,1) >= -0
MCLin5(2,3,1):  -86 y(3,2,1) + v(2,3,1) - u(2,3,1) >= -86
MCLin6(3,2,1):  u(3,2,1) >= -0
MCLin7(3,2,1):  -79 y(2,3,1) - u(3,2,1) <= -0
MCLin8(3,2,1):  76 y(2,3,1) + v(3,2,1) - u(3,2,1) <= 76
MCLin9(3,2,1):  76 y(2,3,1) - u(3,2,1) >= -0
MCLin10(3,2,1):  -79 y(2,3,1) + v(3,2,1) - u(3,2,1) >= -79
MCLinV(2,3,2):  x(2,2) - v(2,3,2) - x(3,2) = 1
MCLinV(3,2,2):  - x(2,2) - v(3,2,2) + x(3,2) = 6
MCLin1(2,3,2):  u(2,3,2) >= -0
MCLin2(2,3,2):  -77 y(3,2,2) - u(2,3,2) <= -0
MCLin3(2,3,2):  78 y(3,2,2) + v(2,3,2) - u(2,3,2) <= 78
MCLin4(2,3,2):  78 y(3,2,2) - u(2,3,2) >= -0
MCLin5(2,3,2):  -77 y(3,2,2) + v(2,3,2) - u(2,3,2) >= -77
MCLin6(3,2,2):  u(3,2,2) >= -0
MCLin7(3,2,2):  -85 y(2,3,2) - u(3,2,2) <= -0
MCLin8(3,2,2):  70 y(2,3,2) + v(3,2,2) - u(3,2,2) <= 70
MCLin9(3,2,2):  70 y(2,3,2) - u(3,2,2) >= -0
MCLin10(3,2,2):  -85 y(2,3,2) + v(3,2,2) - u(3,2,2) >= -85
MCLinV(2,3,3):  x(2,3) - v(2,3,3) - x(3,3) = 5
MCLinV(3,2,3):  - x(2,3) - v(3,2,3) + x(3,3) = 2
MCLin1(2,3,3):  u(2,3,3) >= -0
MCLin2(2,3,3):  -75 y(3,2,3) - u(2,3,3) <= -0
MCLin3(2,3,3):  80 y(3,2,3) + v(2,3,3) - u(2,3,3) <= 80
MCLin4(2,3,3):  80 y(3,2,3) - u(2,3,3) >= -0
MCLin5(2,3,3):  -75 y(3,2,3) + v(2,3,3) - u(2,3,3) >= -75
MCLin6(3,2,3):  u(3,2,3) >= -0
MCLin7(3,2,3):  -87 y(2,3,3) - u(3,2,3) <= -0
MCLin8(3,2,3):  68 y(2,3,3) + v(3,2,3) - u(3,2,3) <= 68
MCLin9(3,2,3):  68 y(2,3,3) - u(3,2,3) >= -0
MCLin10(3,2,3):  -87 y(2,3,3) + v(3,2,3) - u(3,2,3) >= -87
MCLinV(2,4,0):  x(2,0) - v(2,4,0) - x(4,0) = 6
MCLinV(4,2,0):  - x(2,0) - v(4,2,0) + x(4,0) = 4
MCLin1(2,4,0):  u(2,4,0) >= -0
MCLin2(2,4,0):  -83 y(4,2,0) - u(2,4,0) <= -0
MCLin3(2,4,0):  64 y(4,2,0) + v(2,4,0) - u(2,4,0) <= 64
MCLin4(2,4,0):  64 y(4,2,0) - u(2,4,0) >= -0
MCLin5(2,4,0):  -83 y(4,2,0) + v(2,4,0) - u(2,4,0) >= -83
MCLin6(4,2,0):  u(4,2,0) >= -0
MCLin7(4,2,0):  -74 y(2,4,0) - u(4,2,0) <= -0
MCLin8(4,2,0):  73 y(2,4,0) + v(4,2,0) - u(4,2,0) <= 73
MCLin9(4,2,0):  73 y(2,4,0) - u(4,2,0) >= -0
MCLin10(4,2,0):  -74 y(2,4,0) + v(4,2,0) - u(4,2,0) >= -74
MCLinV(2,4,1):  x(2,1) - v(2,4,1) - x(4,1) = 10
MCLinV(4,2,1):  - x(2,1) - v(4,2,1) + x(4,1) = 1
MCLin1(2,4,1):  u(2,4,1) >= -0
MCLin2(2,4,1):  -80 y(4,2,1) - u(2,4,1) <= -0
MCLin3(2,4,1):  67 y(4,2,1) + v(2,4,1) - u(2,4,1) <= 67
MCLin4(2,4,1):  67 y(4,2,1) - u(2,4,1) >= -0
MCLin5(2,4,1):  -80 y(4,2,1) + v(2,4,1) - u(2,4,1) >= -80
MCLin6(4,2,1):  u(4,2,1) >= -0
MCLin7(4,2,1):  -78 y(2,4,1) - u(4,2,1) <= -0
MCLin8(4,2,1):  69 y(2,4,1) + v(4,2,1) - u(4,2,1) <= 69
MCLin9(4,2,1):  69 y(2,4,1) - u(4,2,1) >= -0
MCLin10(4,2,1):  -78 y(2,4,1) + v(4,2,1) - u(4,2,1) >= -78
MCLinV(2,4,2):  x(2,2) - v(2,4,2) - x(4,2) = 3
MCLinV(4,2,2):  - x(2,2) - v(4,2,2) + x(4,2) = 6
MCLin1(2,4,2):  u(2,4,2) >= -0
MCLin2(2,4,2):  -71 y(4,2,2) - u(2,4,2) <= -0
MCLin3(2,4,2):  76 y(4,2,2) + v(2,4,2) - u(2,4,2) <= 76
MCLin4(2,4,2):  76 y(4,2,2) - u(2,4,2) >= -0
MCLin5(2,4,2):  -71 y(4,2,2) + v(2,4,2) - u(2,4,2) >= -71
MCLin6(4,2,2):  u(4,2,2) >= -0
MCLin7(4,2,2):  -85 y(2,4,2) - u(4,2,2) <= -0
MCLin8(4,2,2):  62 y(2,4,2) + v(4,2,2) - u(4,2,2) <= 62
MCLin9(4,2,2):  62 y(2,4,2) - u(4,2,2) >= -0
MCLin10(4,2,2):  -85 y(2,4,2) + v(4,2,2) - u(4,2,2) >= -85
MCLinV(2,4,3):  x(2,3) - v(2,4,3) - x(4,3) = 5
MCLinV(4,2,3):  - x(2,3) - v(4,2,3) + x(4,3) = 2
MCLin1(2,4,3):  u(2,4,3) >= -0
MCLin2(2,4,3):  -69 y(4,2,3) - u(2,4,3) <= -0
MCLin3(2,4,3):  78 y(4,2,3) + v(2,4,3) - u(2,4,3) <= 78
MCLin4(2,4,3):  78 y(4,2,3) - u(2,4,3) >= -0
MCLin5(2,4,3):  -69 y(4,2,3) + v(2,4,3) - u(2,4,3) >= -69
MCLin6(4,2,3):  u(4,2,3) >= -0
MCLin7(4,2,3):  -85 y(2,4,3) - u(4,2,3) <= -0
MCLin8(4,2,3):  62 y(2,4,3) + v(4,2,3) - u(4,2,3) <= 62
MCLin9(4,2,3):  62 y(2,4,3) - u(4,2,3) >= -0
MCLin10(4,2,3):  -85 y(2,4,3) + v(4,2,3) - u(4,2,3) >= -85
MCLinV(3,4,0):  x(3,0) - v(3,4,0) - x(4,0) = 6
MCLinV(4,3,0):  - x(3,0) - v(4,3,0) + x(4,0) = 1
MCLin1(3,4,0):  u(3,4,0) >= -0
MCLin2(3,4,0):  -86 y(4,3,0) - u(3,4,0) <= -0
MCLin3(3,4,0):  58 y(4,3,0) + v(3,4,0) - u(3,4,0) <= 58
MCLin4(3,4,0):  58 y(4,3,0) - u(3,4,0) >= -0
MCLin5(3,4,0):  -86 y(4,3,0) + v(3,4,0) - u(3,4,0) >= -86
MCLin6(4,3,0):  u(4,3,0) >= -0
MCLin7(4,3,0):  -65 y(3,4,0) - u(4,3,0) <= -0
MCLin8(4,3,0):  79 y(3,4,0) + v(4,3,0) - u(4,3,0) <= 79
MCLin9(4,3,0):  79 y(3,4,0) - u(4,3,0) >= -0
MCLin10(4,3,0):  -65 y(3,4,0) + v(4,3,0) - u(4,3,0) >= -65
MCLinV(3,4,1):  x(3,1) - v(3,4,1) - x(4,1) = 10
MCLinV(4,3,1):  - x(3,1) - v(4,3,1) + x(4,1) = 9
MCLin1(3,4,1):  u(3,4,1) >= -0
MCLin2(3,4,1):  -79 y(4,3,1) - u(3,4,1) <= -0
MCLin3(3,4,1):  65 y(4,3,1) + v(3,4,1) - u(3,4,1) <= 65
MCLin4(3,4,1):  65 y(4,3,1) - u(3,4,1) >= -0
MCLin5(3,4,1):  -79 y(4,3,1) + v(3,4,1) - u(3,4,1) >= -79
MCLin6(4,3,1):  u(4,3,1) >= -0
MCLin7(4,3,1):  -84 y(3,4,1) - u(4,3,1) <= -0
MCLin8(4,3,1):  60 y(3,4,1) + v(4,3,1) - u(4,3,1) <= 60
MCLin9(4,3,1):  60 y(3,4,1) - u(4,3,1) >= -0
MCLin10(4,3,1):  -84 y(3,4,1) + v(4,3,1) - u(4,3,1) >= -84
MCLinV(3,4,2):  x(3,2) - v(3,4,2) - x(4,2) = 3
MCLinV(4,3,2):  - x(3,2) - v(4,3,2) + x(4,2) = 1
MCLin1(3,4,2):  u(3,4,2) >= -0
MCLin2(3,4,2):  -71 y(4,3,2) - u(3,4,2) <= -0
MCLin3(3,4,2):  73 y(4,3,2) + v(3,4,2) - u(3,4,2) <= 73
MCLin4(3,4,2):  73 y(4,3,2) - u(3,4,2) >= -0
MCLin5(3,4,2):  -71 y(4,3,2) + v(3,4,2) - u(3,4,2) >= -71
MCLin6(4,3,2):  u(4,3,2) >= -0
MCLin7(4,3,2):  -77 y(3,4,2) - u(4,3,2) <= -0
MCLin8(4,3,2):  67 y(3,4,2) + v(4,3,2) - u(4,3,2) <= 67
MCLin9(4,3,2):  67 y(3,4,2) - u(4,3,2) >= -0
MCLin10(4,3,2):  -77 y(3,4,2) + v(4,3,2) - u(4,3,2) >= -77
MCLinV(3,4,3):  x(3,3) - v(3,4,3) - x(4,3) = 5
MCLinV(4,3,3):  - x(3,3) - v(4,3,3) + x(4,3) = 5
MCLin1(3,4,3):  u(3,4,3) >= -0
MCLin2(3,4,3):  -75 y(4,3,3) - u(3,4,3) <= -0
MCLin3(3,4,3):  69 y(4,3,3) + v(3,4,3) - u(3,4,3) <= 69
MCLin4(3,4,3):  69 y(4,3,3) - u(3,4,3) >= -0
MCLin5(3,4,3):  -75 y(4,3,3) + v(3,4,3) - u(3,4,3) >= -75
MCLin6(4,3,3):  u(4,3,3) >= -0
MCLin7(4,3,3):  -79 y(3,4,3) - u(4,3,3) <= -0
MCLin8(4,3,3):  65 y(3,4,3) + v(4,3,3) - u(4,3,3) <= 65
MCLin9(4,3,3):  65 y(3,4,3) - u(4,3,3) >= -0
MCLin10(4,3,3):  -79 y(3,4,3) + v(4,3,3) - u(4,3,3) >= -79
makespan(0):  C - x(0,1) >= 2
makespan(1):  C - x(1,3) >= 8
makespan(2):  C - x(2,0) >= 4
makespan(3):  C - x(3,1) >= 9
makespan(4):  C - x(4,0) >= 6
cut_clique_0(01234,0):  0.06352 x(0,0) + 0.09800 x(1,0) + 0.01270 x(3,0) >= 1
cut_clique_0(0123,0):  0.06352 x(0,0) + 0.09800 x(1,0) + 0.01270 x(3,0) >= 1
cut_clique_0(0134,0):  0.06352 x(0,0) + 0.09800 x(1,0) + 0.01270 x(3,0) >= 1
cut_clique_0(1234,0):  0.07042 x(1,0) + 0.08451 x(3,0) >= 1
cut_clique_0(0124,0):  0.08000 x(0,0) + 0.12000 x(1,0) >= 1
cut_clique_0(013,0):  0.06352 x(0,0) + 0.09800 x(1,0) + 0.01270 x(3,0) >= 1
cut_clique_0(012,0):  0.08000 x(0,0) + 0.12000 x(1,0) >= 1
cut_clique_0(123,0):  0.07042 x(1,0) + 0.08451 x(3,0) >= 1
cut_clique_0(014,0):  0.08000 x(0,0) + 0.12000 x(1,0) >= 1
cut_clique_0(134,0):  0.07042 x(1,0) + 0.08451 x(3,0) >= 1
cut_clique_0(01234,1):  0.00631 x(0,1) + 0.02839 x(3,1) + 0.03983 x(4,1) >= 1
cut_clique_0(1234,1):  0.03448 x(3,1) + 0.04741 x(4,1) >= 1
cut_clique_0(0234,1):  0.00631 x(0,1) + 0.02839 x(3,1) + 0.03983 x(4,1) >= 1
cut_clique_0(0134,1):  0.00631 x(0,1) + 0.02839 x(3,1) + 0.03983 x(4,1) >= 1
cut_clique_0(234,1):  0.03448 x(3,1) + 0.04741 x(4,1) >= 1
cut_clique_0(134,1):  0.03448 x(3,1) + 0.04741 x(4,1) >= 1
cut_clique_0(034,1):  0.00631 x(0,1) + 0.02839 x(3,1) + 0.03983 x(4,1) >= 1
cut_clique_0(01234,2):  0.33333 x(3,2) + x(4,2) >= 1
cut_clique_0(1234,2):  0.33333 x(3,2) + x(4,2) >= 1
cut_clique_0(0234,2):  0.33333 x(3,2) + x(4,2) >= 1
cut_clique_0(0134,2):  0.33333 x(3,2) + x(4,2) >= 1
cut_clique_0(234,2):  0.33333 x(3,2) + x(4,2) >= 1
cut_clique_0(134,2):  0.33333 x(3,2) + x(4,2) >= 1
cut_clique_0(034,2):  0.33333 x(3,2) + x(4,2) >= 1
cut_clique_0(01234,3):  0.06667 x(3,3) + 0.15556 x(4,3) >= 1
cut_clique_0(0234,3):  0.06667 x(3,3) + 0.15556 x(4,3) >= 1
cut_clique_0(0134,3):  0.06667 x(3,3) + 0.15556 x(4,3) >= 1
cut_clique_0(1234,3):  0.06667 x(3,3) + 0.15556 x(4,3) >= 1
cut_clique_0(034,3):  0.06667 x(3,3) + 0.15556 x(4,3) >= 1
cut_clique_0(234,3):  0.06667 x(3,3) + 0.15556 x(4,3) >= 1
cut_clique_0(134,3):  0.06667 x(3,3) + 0.15556 x(4,3) >= 1
cut_clique_1(01234,0):  0.03421 x(0,0) + 0.04903 x(1,0) + 0.02737 x(2,0) + 0.00684 x(3,0) >= 1
cut_clique_1(0123,0):  0.03421 x(0,0) + 0.04903 x(1,0) + 0.02737 x(2,0) + 0.00684 x(3,0) >= 1
cut_clique_1(0124,0):  0.03974 x(0,0) + 0.05430 x(1,0) + 0.03179 x(2,0) >= 1
cut_clique_1(0134,0):  0.06740 x(0,0) + 0.09945 x(1,0) + 0.00994 x(3,0) >= 1
cut_clique_1(012,0):  0.03974 x(0,0) + 0.05430 x(1,0) + 0.03179 x(2,0) >= 1
cut_clique_1(013,0):  0.06740 x(0,0) + 0.09945 x(1,0) + 0.00994 x(3,0) >= 1
cut_clique_1(01234,2):  0.22222 x(2,2) + 0.03704 x(3,2) + 0.11111 x(4,2) >= 1
cut_clique_1(1234,2):  0.22222 x(2,2) + 0.03704 x(3,2) + 0.11111 x(4,2) >= 1
cut_clique_1(0234,2):  0.22222 x(2,2) + 0.03704 x(3,2) + 0.11111 x(4,2) >= 1
cut_clique_1(234,2):  0.22222 x(2,2) + 0.03704 x(3,2) + 0.11111 x(4,2) >= 1
cut_clique_1(01234,3):  0.04219 x(1,3) + 0.00844 x(2,3) + 0.01266 x(3,3) + 0.05767 x(4,3) >= 1
cut_clique_1(0234,3):  0.01905 x(2,3) + 0.04762 x(3,3) + 0.12381 x(4,3) >= 1
cut_clique_1(1234,3):  0.04219 x(1,3) + 0.00844 x(2,3) + 0.01266 x(3,3) + 0.05767 x(4,3) >= 1
cut_clique_1(234,3):  0.01905 x(2,3) + 0.04762 x(3,3) + 0.12381 x(4,3) >= 1
cut_clique_2(01234,0):  0.01843 x(0,0) + 0.02317 x(1,0) + 0.01474 x(2,0) + 0.00369 x(3,0) + 0.02212 x(4,0) >= 1
cut_clique_2(0123,0):  0.04164 x(0,0) + 0.05766 x(1,0) + 0.02306 x(2,0) + 0.00577 x(3,0) >= 1
cut_clique_2(0124,0):  0.01608 x(0,0) + 0.01697 x(1,0) + 0.01286 x(2,0) + 0.03002 x(4,0) >= 1
cut_clique_3(01234,0):  0.02270 x(0,0) + 0.03349 x(1,0) + 0.01005 x(2,0) + 0.00335 x(3,0) + 0.02345 x(4,0) >= 1
cut_clique_0:  0.06378 x(0,0) + 0.09566 x(1,0) + 0.00180 x(0,1) + 0.00810 x(3,1) + 0.00104 x(4,1) >= 1
cut_clique_1:  0.04935 x(0,0) + 0.07388 x(1,0) + 0.00348 x(2,0) + 0.00087 x(3,0) + 0.00813 x(4,0) + 0.00129 x(0,1) + 0.00581 x(3,1) >= 1
cut_clique_2:  0.01764 x(0,0) + 0.02603 x(1,0) + 0.01041 x(2,0) + 0.00260 x(3,0) + 0.02430 x(4,0) + 0.00032 x(0,1) + 0.00145 x(3,1) + 0.00203 x(4,1) >= 1
Bounds
 0 <= C <= 92
 2 <= x(0,0) <= 75
 0 <= y(0,1,0) <= 1
 0 <= y(1,0,0) <= 1
 -81 <= v(0,1,0) <= 64
 -79 <= v(1,0,0) <= 66
 -920 <= u(0,1,0)
 -920 <= u(1,0,0)
 0 <= y(0,2,0) <= 1
 0 <= y(2,0,0) <= 1
 -90 <= v(0,2,0) <= 62
 -71 <= v(2,0,0) <= 81
 -920 <= u(0,2,0)
 -920 <= u(2,0,0)
 0 <= y(0,3,0) <= 1
 0 <= y(3,0,0) <= 1
 -81 <= v(0,3,0) <= 68
 -74 <= v(3,0,0) <= 75
 -920 <= u(0,3,0)
 -920 <= u(3,0,0)
 0 <= y(0,4,0) <= 1
 0 <= y(4,0,0) <= 1
 -90 <= v(0,4,0) <= 51
 -62 <= v(4,0,0) <= 79
 -920 <= u(0,4,0)
 -920 <= u(4,0,0)
 1 <= x(1,0) <= 73
 0 <= y(1,2,0) <= 1
 0 <= y(2,1,0) <= 1
 -91 <= v(1,2,0) <= 60
 -74 <= v(2,1,0) <= 77
 -920 <= u(1,2,0)
 -920 <= u(2,1,0)
 0 <= y(1,3,0) <= 1
 0 <= y(3,1,0) <= 1
 -82 <= v(1,3,0) <= 66
 -77 <= v(3,1,0) <= 71
 -920 <= u(1,3,0)
 -920 <= u(3,1,0)
 0 <= y(1,4,0) <= 1
 0 <= y(4,1,0) <= 1
 -91 <= v(1,4,0) <= 49
 -65 <= v(4,1,0) <= 75
 -920 <= u(1,4,0)
 -920 <= u(4,1,0)
 9 <= x(2,0) <= 88
 0 <= y(2,3,0) <= 1
 0 <= y(3,2,0) <= 1
 -74 <= v(2,3,0) <= 81
 -86 <= v(3,2,0) <= 69
 -920 <= u(2,3,0)
 -920 <= u(3,2,0)
 0 <= y(2,4,0) <= 1
 0 <= y(4,2,0) <= 1
 -83 <= v(2,4,0) <= 64
 -74 <= v(4,2,0) <= 73
 -920 <= u(2,4,0)
 -920 <= u(4,2,0)
 6 <= x(3,0) <= 82
 0 <= y(3,4,0) <= 1
 0 <= y(4,3,0) <= 1
 -86 <= v(3,4,0) <= 58
 -65 <= v(4,3,0) <= 79
 -920 <= u(3,4,0)
 -920 <= u(4,3,0)
 18 <= x(4,0) <= 86
 17 <= x(0,1) <= 90
 0 <= y(0,1,1) <= 1
 0 <= y(1,0,1) <= 1
 -56 <= v(0,1,1) <= 89
 -92 <= v(1,0,1) <= 53
 -920 <= u(0,1,1)
 -920 <= u(1,0,1)
 0 <= y(0,2,1) <= 1
 0 <= y(2,0,1) <= 1
 -69 <= v(0,2,1) <= 83
 -86 <= v(2,0,1) <= 66
 -920 <= u(0,2,1)
 -920 <= u(2,0,1)
 0 <= y(0,3,1) <= 1
 0 <= y(3,0,1) <= 1
 -75 <= v(0,3,1) <= 74
 -85 <= v(3,0,1) <= 64
 -920 <= u(0,3,1)
 -920 <= u(3,0,1)
 0 <= y(0,4,1) <= 1
 0 <= y(4,0,1) <= 1
 -69 <= v(0,4,1) <= 72
 -84 <= v(4,0,1) <= 57
 -920 <= u(0,4,1)
 -920 <= u(4,0,1)
 0 <= x(1,1) <= 72
 0 <= y(1,2,1) <= 1
 0 <= y(2,1,1) <= 1
 -86 <= v(1,2,1) <= 65
 -67 <= v(2,1,1) <= 84
 -920 <= u(1,2,1)
 -920 <= u(2,1,1)
 0 <= y(1,3,1) <= 1
 0 <= y(3,1,1) <= 1
 -92 <= v(1,3,1) <= 56
 -66 <= v(3,1,1) <= 82
 -920 <= u(1,3,1)
 -920 <= u(3,1,1)
 0 <= y(1,4,1) <= 1
 0 <= y(4,1,1) <= 1
 -86 <= v(1,4,1) <= 54
 -65 <= v(4,1,1) <= 75
 -920 <= u(1,4,1)
 -920 <= u(4,1,1)
 6 <= x(2,1) <= 85
 0 <= y(2,3,1) <= 1
 0 <= y(3,2,1) <= 1
 -86 <= v(2,3,1) <= 69
 -79 <= v(3,2,1) <= 76
 -920 <= u(2,3,1)
 -920 <= u(3,2,1)
 0 <= y(2,4,1) <= 1
 0 <= y(4,2,1) <= 1
 -80 <= v(2,4,1) <= 67
 -78 <= v(4,2,1) <= 69
 -920 <= u(2,4,1)
 -920 <= u(4,2,1)
 7 <= x(3,1) <= 83
 0 <= y(3,4,1) <= 1
 0 <= y(4,3,1) <= 1
 -79 <= v(3,4,1) <= 65
 -84 <= v(4,3,1) <= 60
 -920 <= u(3,4,1)
 -920 <= u(4,3,1)
 8 <= x(4,1) <= 76
 7 <= x(0,2) <= 80
 0 <= y(0,1,2) <= 1
 0 <= y(1,0,2) <= 1
 -77 <= v(0,1,2) <= 68
 -79 <= v(1,0,2) <= 66
 -920 <= u(0,1,2)
 -920 <= u(1,0,2)
 0 <= y(0,2,2) <= 1
 0 <= y(2,0,2) <= 1
 -78 <= v(0,2,2) <= 74
 -90 <= v(2,0,2) <= 62
 -920 <= u(0,2,2)
 -920 <= u(2,0,2)
 0 <= y(0,3,2) <= 1
 0 <= y(3,0,2) <= 1
 -70 <= v(0,3,2) <= 79
 -90 <= v(3,0,2) <= 59
 -920 <= u(0,3,2)
 -920 <= u(3,0,2)
 0 <= y(0,4,2) <= 1
 0 <= y(4,0,2) <= 1
 -64 <= v(0,4,2) <= 77
 -90 <= v(4,0,2) <= 51
 -920 <= u(0,4,2)
 -920 <= u(4,0,2)
 11 <= x(1,2) <= 83
 0 <= y(1,2,2) <= 1
 0 <= y(2,1,2) <= 1
 -74 <= v(1,2,2) <= 77
 -84 <= v(2,1,2) <= 67
 -920 <= u(1,2,2)
 -920 <= u(2,1,2)
 0 <= y(1,3,2) <= 1
 0 <= y(3,1,2) <= 1
 -66 <= v(1,3,2) <= 82
 -84 <= v(3,1,2) <= 64
 -920 <= u(1,3,2)
 -920 <= u(3,1,2)
 0 <= y(1,4,2) <= 1
 0 <= y(4,1,2) <= 1
 -60 <= v(1,4,2) <= 80
 -84 <= v(4,1,2) <= 56
 -920 <= u(1,4,2)
 -920 <= u(4,1,2)
 0 <= x(2,2) <= 79
 0 <= y(2,3,2) <= 1
 0 <= y(3,2,2) <= 1
 -77 <= v(2,3,2) <= 78
 -85 <= v(3,2,2) <= 70
 -920 <= u(2,3,2)
 -920 <= u(3,2,2)
 0 <= y(2,4,2) <= 1
 0 <= y(4,2,2) <= 1
 -71 <= v(2,4,2) <= 76
 -85 <= v(4,2,2) <= 62
 -920 <= u(2,4,2)
 -920 <= u(4,2,2)
 0 <= x(3,2) <= 76
 0 <= y(3,4,2) <= 1
 0 <= y(4,3,2) <= 1
 -71 <= v(3,4,2) <= 73
 -77 <= v(4,3,2) <= 67
 -920 <= u(3,4,2)
 -920 <= u(4,3,2)
 0 <= x(4,2) <= 68
 0 <= x(0,3) <= 73
 0 <= y(0,1,3) <= 1
 0 <= y(1,0,3) <= 1
 -92 <= v(0,1,3) <= 53
 -63 <= v(1,0,3) <= 82
 -920 <= u(0,1,3)
 -920 <= u(1,0,3)
 0 <= y(0,2,3) <= 1
 0 <= y(2,0,3) <= 1
 -88 <= v(0,2,3) <= 64
 -68 <= v(2,0,3) <= 84
 -920 <= u(0,2,3)
 -920 <= u(2,0,3)
 0 <= y(0,3,3) <= 1
 0 <= y(3,0,3) <= 1
 -82 <= v(0,3,3) <= 67
 -74 <= v(3,0,3) <= 75
 -920 <= u(0,3,3)
 -920 <= u(3,0,3)
 0 <= y(0,4,3) <= 1
 0 <= y(4,0,3) <= 1
 -76 <= v(0,4,3) <= 65
 -72 <= v(4,0,3) <= 69
 -920 <= u(0,4,3)
 -920 <= u(4,0,3)
 12 <= x(1,3) <= 84
 0 <= y(1,2,3) <= 1
 0 <= y(2,1,3) <= 1
 -76 <= v(1,2,3) <= 75
 -85 <= v(2,1,3) <= 66
 -920 <= u(1,2,3)
 -920 <= u(2,1,3)
 0 <= y(1,3,3) <= 1
 0 <= y(3,1,3) <= 1
 -70 <= v(1,3,3) <= 78
 -91 <= v(3,1,3) <= 57
 -920 <= u(1,3,3)
 -920 <= u(3,1,3)
 0 <= y(1,4,3) <= 1
 0 <= y(4,1,3) <= 1
 -64 <= v(1,4,3) <= 76
 -89 <= v(4,1,3) <= 51
 -920 <= u(1,4,3)
 -920 <= u(4,1,3)
 7 <= x(2,3) <= 86
 0 <= y(2,3,3) <= 1
 0 <= y(3,2,3) <= 1
 -75 <= v(2,3,3) <= 80
 -87 <= v(3,2,3) <= 68
 -920 <= u(2,3,3)
 -920 <= u(3,2,3)
 0 <= y(2,4,3) <= 1
 0 <= y(4,2,3) <= 1
 -69 <= v(2,4,3) <= 78
 -85 <= v(4,2,3) <= 62
 -920 <= u(2,4,3)
 -920 <= u(4,2,3)
 1 <= x(3,3) <= 77
 0 <= y(3,4,3) <= 1
 0 <= y(4,3,3) <= 1
 -75 <= v(3,4,3) <= 69
 -79 <= v(4,3,3) <= 65
 -920 <= u(3,4,3)
 -920 <= u(4,3,3)
 3 <= x(4,3) <= 71
Integers
C x(0,0) y(0,1,0) y(1,0,0) v(0,1,0) v(1,0,0) u(0,1,0) u(1,0,0) y(0,2,0) y(2,0,0) 
v(0,2,0) v(2,0,0) u(0,2,0) u(2,0,0) y(0,3,0) y(3,0,0) v(0,3,0) v(3,0,0) u(0,3,0) u(3,0,0) 
y(0,4,0) y(4,0,0) v(0,4,0) v(4,0,0) u(0,4,0) u(4,0,0) x(1,0) y(1,2,0) y(2,1,0) v(1,2,0) 
v(2,1,0) u(1,2,0) u(2,1,0) y(1,3,0) y(3,1,0) v(1,3,0) v(3,1,0) u(1,3,0) u(3,1,0) y(1,4,0) 
y(4,1,0) v(1,4,0) v(4,1,0) u(1,4,0) u(4,1,0) x(2,0) y(2,3,0) y(3,2,0) v(2,3,0) v(3,2,0) 
u(2,3,0) u(3,2,0) y(2,4,0) y(4,2,0) v(2,4,0) v(4,2,0) u(2,4,0) u(4,2,0) x(3,0) y(3,4,0) 
y(4,3,0) v(3,4,0) v(4,3,0) u(3,4,0) u(4,3,0) x(4,0) x(0,1) y(0,1,1) y(1,0,1) v(0,1,1) 
v(1,0,1) u(0,1,1) u(1,0,1) y(0,2,1) y(2,0,1) v(0,2,1) v(2,0,1) u(0,2,1) u(2,0,1) y(0,3,1) 
y(3,0,1) v(0,3,1) v(3,0,1) u(0,3,1) u(3,0,1) y(0,4,1) y(4,0,1) v(0,4,1) v(4,0,1) u(0,4,1) 
u(4,0,1) x(1,1) y(1,2,1) y(2,1,1) v(1,2,1) v(2,1,1) u(1,2,1) u(2,1,1) y(1,3,1) y(3,1,1) 
v(1,3,1) v(3,1,1) u(1,3,1) u(3,1,1) y(1,4,1) y(4,1,1) v(1,4,1) v(4,1,1) u(1,4,1) u(4,1,1) 
x(2,1) y(2,3,1) y(3,2,1) v(2,3,1) v(3,2,1) u(2,3,1) u(3,2,1) y(2,4,1) y(4,2,1) v(2,4,1) 
v(4,2,1) u(2,4,1) u(4,2,1) x(3,1) y(3,4,1) y(4,3,1) v(3,4,1) v(4,3,1) u(3,4,1) u(4,3,1) 
x(4,1) x(0,2) y(0,1,2) y(1,0,2) v(0,1,2) v(1,0,2) u(0,1,2) u(1,0,2) y(0,2,2) y(2,0,2) 
v(0,2,2) v(2,0,2) u(0,2,2) u(2,0,2) y(0,3,2) y(3,0,2) v(0,3,2) v(3,0,2) u(0,3,2) u(3,0,2) 
y(0,4,2) y(4,0,2) v(0,4,2) v(4,0,2) u(0,4,2) u(4,0,2) x(1,2) y(1,2,2) y(2,1,2) v(1,2,2) 
v(2,1,2) u(1,2,2) u(2,1,2) y(1,3,2) y(3,1,2) v(1,3,2) v(3,1,2) u(1,3,2) u(3,1,2) y(1,4,2) 
y(4,1,2) v(1,4,2) v(4,1,2) u(1,4,2) u(4,1,2) x(2,2) y(2,3,2) y(3,2,2) v(2,3,2) v(3,2,2) 
u(2,3,2) u(3,2,2) y(2,4,2) y(4,2,2) v(2,4,2) v(4,2,2) u(2,4,2) u(4,2,2) x(3,2) y(3,4,2) 
y(4,3,2) v(3,4,2) v(4,3,2) u(3,4,2) u(4,3,2) x(4,2) x(0,3) y(0,1,3) y(1,0,3) v(0,1,3) 
v(1,0,3) u(0,1,3) u(1,0,3) y(0,2,3) y(2,0,3) v(0,2,3) v(2,0,3) u(0,2,3) u(2,0,3) y(0,3,3) 
y(3,0,3) v(0,3,3) v(3,0,3) u(0,3,3) u(3,0,3) y(0,4,3) y(4,0,3) v(0,4,3) v(4,0,3) u(0,4,3) 
u(4,0,3) x(1,3) y(1,2,3) y(2,1,3) v(1,2,3) v(2,1,3) u(1,2,3) u(2,1,3) y(1,3,3) y(3,1,3) 
v(1,3,3) v(3,1,3) u(1,3,3) u(3,1,3) y(1,4,3) y(4,1,3) v(1,4,3) v(4,1,3) u(1,4,3) u(4,1,3) 
x(2,3) y(2,3,3) y(3,2,3) v(2,3,3) v(3,2,3) u(2,3,3) u(3,2,3) y(2,4,3) y(4,2,3) v(2,4,3) 
v(4,2,3) u(2,4,3) u(4,2,3) x(3,3) y(3,4,3) y(4,3,3) v(3,4,3) v(4,3,3) u(3,4,3) u(4,3,3) 
x(4,3) 
End
